3230.89
0 3 8 9 11 13 16 17 22 73 65 12 61 56 0
0 14 15 18 19 20 25 26 27 46 31 38 0
0 28 32 34 36 39 51 71 58 6 0
0 29 40 54 0
0 30 33 35 37 41 43 45 0
0 42 44 49 50 55 57 5 2 1 0
0 47 52 59 60 68 70 21 0
0 62 63 64 66 67 69 74 75 7 4 10 0
0 48 24 72 23 53 0
